
Gurobi 9.5.1 (linux64, gurobi_cl) logging started Tue Sep 20 16:40:59 2022

Set parameter Username
Set parameter LogFile to value "gurobi.log"
Academic license - for non-commercial use only - expires 2023-05-15
Using license file /home/derek/gurobi.lic

Gurobi 9.5.1 (linux64, gurobi_cl) logging started Tue Sep 20 16:41:20 2022

Set parameter Username
Set parameter LogFile to value "gurobi.log"
Academic license - for non-commercial use only - expires 2023-05-15
Using license file /home/derek/gurobi.lic

Gurobi 9.5.1 (linux64, gurobi_cl) logging started Tue Sep 20 16:41:53 2022

Set parameter Username
Set parameter LogFile to value "gurobi.log"
Academic license - for non-commercial use only - expires 2023-05-15
Using license file /home/derek/gurobi.lic

Gurobi 9.5.1 (linux64, gurobi_cl) logging started Tue Sep 20 16:42:25 2022

Set parameter Username
Set parameter LogFile to value "gurobi.log"
Academic license - for non-commercial use only - expires 2023-05-15
Using license file /home/derek/gurobi.lic
